p cnf 10 50
-8 -1 -5 0
1 10 -9 0
-5 7 4 0
7 -8 -3 0
-9 5 -3 0
1 5 -2 0
1 -6 7 0
2 8 -5 0
-7 -1 5 0
2 -10 7 0
2 -1 5 0
-7 -4 -9 0
4 -6 -7 0
3 -2 -7 0
-4 -3 -1 0
5 -7 9 0
-9 3 -4 0
-6 8 7 0
5 -2 -4 0
8 7 10 0
-2 7 10 0
-8 -3 1 0
6 -10 4 0
-9 7 5 0
1 3 7 0
-10 3 6 0
4 -8 10 0
9 -8 4 0
10 -5 6 0
-4 -3 8 0
10 -4 -3 0
-8 9 5 0
3 -6 -1 0
9 6 2 0
8 9 -7 0
4 6 1 0
6 -1 -9 0
3 10 2 0
8 -1 -9 0
-2 1 4 0
-4 -7 1 0
1 -7 6 0
10 6 -1 0
1 -4 10 0
-3 6 9 0
9 -2 -3 0
2 5 -9 0
-1 -10 -9 0
9 -2 -7 0
4 -3 -2 0